n_res = 4;
rc = [ 23, 24, 21, 24 ];
n_tasks = 30;
d = [ 5, 3, 6, 4, 7, 2, 3, 8, 2, 4, 4, 3, 3, 7, 4, 5, 5, 3, 8, 7, 4, 2, 10, 8, 6, 4, 8, 1, 4, 4 ];
rr = [| 9, 3, 7, 6, 9, 8, 4, 10, 4, 9, 5, 3, 7, 3, 6, 7, 1, 7, 9, 4, 10, 5, 2, 4, 7, 1, 4, 2, 7, 9
      | 4, 6, 1, 2, 6, 9, 3, 8, 8, 4, 10, 4, 1, 9, 3, 9, 8, 10, 2, 8, 8, 5, 3, 9, 6, 8, 4, 4, 8, 1
      | 7, 7, 8, 7, 3, 5, 6, 2, 9, 1, 9, 2, 8, 2, 3, 5, 2, 5, 7, 2, 1, 4, 10, 3, 7, 9, 5, 10, 9, 4
      | 4, 2, 10, 1, 5, 8, 2, 9, 10, 5, 8, 9, 1, 7, 2, 7, 9, 3, 3, 7, 3, 8, 9, 8, 2, 7, 4, 6, 9, 8 |];
suc = [ { 2 }, 
        { 1 }, 
        { 4 }, 
        { 3 }, 
        { 6 }, 
        { 5 }, 
        { 8 }, 
        { 7 }, 
        { 10 }, 
        { 9 }, 
        { 12 }, 
        { 11 }, 
        { 14 }, 
        { 13 }, 
        { 16 }, 
        { 15 }, 
        { 18 }, 
        { 17 }, 
        { 20 }, 
        { 19 }, 
        { 22 }, 
        { 21 }, 
        { 24 }, 
        { 23 }, 
        { 26 }, 
        { 25 }, 
        { 28 }, 
        { 27 }, 
        { 30 }, 
        { 29 }]; 
